p tw 40 921 8 
1 9 
1 11 
2 7 
2 10 
2 12 
3 4 
3 5 
3 8 
3 10 
4 6 
4 7 
4 9 
5 6 
5 9 
5 10 
6 7 
6 8 
7 8 
7 9 
7 10 
8 9 
8 10 
9 10 
11 18 
11 19 
12 17 
12 20 
13 14 
13 18 
13 20 
13 23 
14 17 
14 19 
14 24 
15 16 
15 19 
15 20 
15 25 
16 17 
16 18 
16 26 
17 18 
17 19 
17 20 
18 19 
18 20 
19 20 
21 28 
21 29 
21 31 
22 27 
22 30 
22 32 
23 24 
23 28 
23 30 
24 27 
24 29 
25 26 
25 29 
25 30 
26 27 
26 28 
27 28 
27 29 
27 30 
28 29 
28 30 
29 30 
31 38 
31 39 
32 37 
32 40 
33 34 
33 35 
33 38 
33 40 
34 36 
34 37 
34 39 
35 36 
35 39 
35 40 
36 37 
36 38 
37 38 
37 39 
37 40 
38 39 
38 40 
39 40 
